*SENSE:Minimize
NAME          MODEL
ROWS
 N  OBJ
 L  C0000000
 L  C0000001
 L  C0000002
 L  C0000003
 L  C0000004
 L  C0000005
 L  C0000006
 L  C0000007
 L  C0000008
 L  C0000009
 L  C0000010
 L  C0000011
 L  C0000012
 L  C0000013
 L  C0000014
 L  C0000015
 L  C0000016
 L  C0000017
 L  C0000018
 L  C0000019
 L  C0000020
 L  C0000021
 L  C0000022
 L  C0000023
 L  C0000024
 L  C0000025
 L  C0000026
 L  C0000027
 L  C0000028
 L  C0000029
 L  C0000030
 L  C0000031
 L  C0000032
 L  C0000033
 L  C0000034
 L  C0000035
 L  C0000036
 L  C0000037
 L  C0000038
 L  C0000039
 L  C0000040
 L  C0000041
 L  C0000042
 L  C0000043
 L  C0000044
 L  C0000045
 L  C0000046
 L  C0000047
 L  C0000048
 L  C0000049
 L  C0000050
 L  C0000051
 L  C0000052
 L  C0000053
 L  C0000054
 L  C0000055
 L  C0000056
 L  C0000057
 L  C0000058
 L  C0000059
 L  C0000060
 L  C0000061
 L  C0000062
 L  C0000063
 L  C0000064
 L  C0000065
 L  C0000066
 L  C0000067
 L  C0000068
 L  C0000069
 L  C0000070
 L  C0000071
 L  C0000072
 L  C0000073
 L  C0000074
 L  C0000075
 L  C0000076
 L  C0000077
 L  C0000078
 L  C0000079
 L  C0000080
 E  C0000081
 E  C0000082
 E  C0000083
 E  C0000084
 E  C0000085
 E  C0000086
 E  C0000087
 E  C0000088
 E  C0000089
 E  C0000090
 E  C0000091
 E  C0000092
 E  C0000093
 E  C0000094
 E  C0000095
 E  C0000096
 E  C0000097
 E  C0000098
 E  C0000099
 E  C0000100
 E  C0000101
 E  C0000102
 E  C0000103
 E  C0000104
 E  C0000105
 E  C0000106
 E  C0000107
 E  C0000108
 E  C0000109
 E  C0000110
 E  C0000111
 E  C0000112
 E  C0000113
 E  C0000114
 E  C0000115
 E  C0000116
 E  C0000117
 E  C0000118
 E  C0000119
 E  C0000120
 E  C0000121
 E  C0000122
 E  C0000123
 E  C0000124
 E  C0000125
 E  C0000126
 E  C0000127
 E  C0000128
 E  C0000129
 E  C0000130
 E  C0000131
 E  C0000132
 E  C0000133
 E  C0000134
 E  C0000135
 E  C0000136
 E  C0000137
 E  C0000138
 E  C0000139
 E  C0000140
 E  C0000141
COLUMNS
    X0000000  C0000000  -1.000000000000e+00
    X0000000  C0000083   1.000000000000e+00
    X0000000  C0000086  -1.000000000000e+00
    X0000000  OBJ        1.000000000000e+00
    X0000001  C0000001  -1.000000000000e+00
    X0000001  C0000087   1.000000000000e+00
    X0000001  C0000095  -1.000000000000e+00
    X0000001  OBJ        1.000000000000e+00
    X0000002  C0000002  -1.000000000000e+00
    X0000002  C0000110   1.000000000000e+00
    X0000002  C0000122  -1.000000000000e+00
    X0000002  OBJ        1.000000000000e+00
    X0000003  C0000003  -1.000000000000e+00
    X0000003  C0000085   1.000000000000e+00
    X0000003  C0000114  -1.000000000000e+00
    X0000003  OBJ        1.000000000000e+00
    X0000004  C0000004  -1.000000000000e+00
    X0000004  C0000116   1.000000000000e+00
    X0000004  C0000119  -1.000000000000e+00
    X0000004  OBJ        1.000000000000e+00
    X0000005  C0000005  -1.000000000000e+00
    X0000005  C0000117  -1.000000000000e+00
    X0000005  C0000121   1.000000000000e+00
    X0000005  OBJ        1.000000000000e+00
    X0000006  C0000006  -1.000000000000e+00
    X0000006  C0000104   1.000000000000e+00
    X0000006  C0000108  -1.000000000000e+00
    X0000006  OBJ        1.000000000000e+00
    X0000007  C0000007  -1.000000000000e+00
    X0000007  C0000105  -1.000000000000e+00
    X0000007  C0000109   1.000000000000e+00
    X0000007  OBJ        1.000000000000e+00
    X0000008  C0000008  -1.000000000000e+00
    X0000008  C0000110   1.000000000000e+00
    X0000008  C0000114  -1.000000000000e+00
    X0000008  OBJ        1.000000000000e+00
    X0000009  C0000009  -1.000000000000e+00
    X0000009  C0000104   1.000000000000e+00
    X0000009  C0000105  -1.000000000000e+00
    X0000009  OBJ        1.000000000000e+00
    X0000010  C0000010  -1.000000000000e+00
    X0000010  C0000083   1.000000000000e+00
    X0000010  C0000095  -1.000000000000e+00
    X0000010  OBJ        1.000000000000e+00
    X0000011  C0000011  -1.000000000000e+00
    X0000011  C0000084  -1.000000000000e+00
    X0000011  C0000096   1.000000000000e+00
    X0000011  OBJ        1.000000000000e+00
    X0000012  C0000012  -1.000000000000e+00
    X0000012  C0000090  -1.000000000000e+00
    X0000012  C0000091   1.000000000000e+00
    X0000012  OBJ        1.000000000000e+00
    X0000013  C0000013  -1.000000000000e+00
    X0000013  C0000081  -1.000000000000e+00
    X0000013  C0000093   1.000000000000e+00
    X0000013  OBJ        1.000000000000e+00
    X0000014  C0000014  -1.000000000000e+00
    X0000014  C0000119  -1.000000000000e+00
    X0000014  C0000121   1.000000000000e+00
    X0000014  OBJ        1.000000000000e+00
    X0000015  C0000015  -1.000000000000e+00
    X0000015  C0000116   1.000000000000e+00
    X0000015  C0000117  -1.000000000000e+00
    X0000015  OBJ        1.000000000000e+00
    X0000016  C0000016  -1.000000000000e+00
    X0000016  C0000086   1.000000000000e+00
    X0000016  C0000088   1.000000000000e+00
    X0000016  C0000090  -1.000000000000e+00
    X0000016  C0000118   1.000000000000e+00
    X0000016  C0000122   1.000000000000e+00
    X0000016  OBJ        1.000000000000e+00
    X0000017  C0000017  -1.000000000000e+00
    X0000017  C0000085  -1.000000000000e+00
    X0000017  C0000087  -1.000000000000e+00
    X0000017  C0000089  -1.000000000000e+00
    X0000017  C0000091   1.000000000000e+00
    X0000017  C0000120  -1.000000000000e+00
    X0000017  OBJ        1.000000000000e+00
    X0000018  C0000018  -1.000000000000e+00
    X0000018  C0000082   1.000000000000e+00
    X0000018  C0000110  -1.000000000000e+00
    X0000018  OBJ        1.000000000000e+00
    X0000019  C0000019  -1.000000000000e+00
    X0000019  C0000099  -1.000000000000e+00
    X0000019  C0000114   1.000000000000e+00
    X0000019  OBJ        1.000000000000e+00
    X0000020  C0000020  -1.000000000000e+00
    X0000020  C0000106   1.000000000000e+00
    X0000020  C0000112  -1.000000000000e+00
    X0000020  OBJ        1.000000000000e+00
    X0000021  C0000021  -1.000000000000e+00
    X0000021  C0000109  -1.000000000000e+00
    X0000021  C0000113   1.000000000000e+00
    X0000021  OBJ        1.000000000000e+00
    X0000022  C0000022  -1.000000000000e+00
    X0000022  C0000100   1.000000000000e+00
    X0000022  C0000116  -1.000000000000e+00
    X0000022  OBJ        1.000000000000e+00
    X0000023  C0000023  -1.000000000000e+00
    X0000023  C0000115  -1.000000000000e+00
    X0000023  C0000117   1.000000000000e+00
    X0000023  OBJ        1.000000000000e+00
    X0000024  C0000024  -1.000000000000e+00
    X0000024  C0000101   1.000000000000e+00
    X0000024  C0000104  -1.000000000000e+00
    X0000024  OBJ        1.000000000000e+00
    X0000025  C0000025  -1.000000000000e+00
    X0000025  C0000103  -1.000000000000e+00
    X0000025  C0000105   1.000000000000e+00
    X0000025  OBJ        1.000000000000e+00
    X0000026  C0000026  -1.000000000000e+00
    X0000026  C0000092   1.000000000000e+00
    X0000026  C0000101  -1.000000000000e+00
    X0000026  OBJ        1.000000000000e+00
    X0000027  C0000027  -1.000000000000e+00
    X0000027  C0000098  -1.000000000000e+00
    X0000027  C0000102   1.000000000000e+00
    X0000027  OBJ        1.000000000000e+00
    X0000028  C0000028  -1.000000000000e+00
    X0000028  C0000082  -1.000000000000e+00
    X0000028  C0000094   1.000000000000e+00
    X0000028  OBJ        1.000000000000e+04
    X0000029  C0000029  -1.000000000000e+00
    X0000029  C0000084  -1.000000000000e+00
    X0000029  C0000096   1.000000000000e+00
    X0000029  OBJ        1.000000000000e+04
    X0000030  C0000030  -1.000000000000e+00
    X0000030  C0000090  -1.000000000000e+00
    X0000030  C0000091   1.000000000000e+00
    X0000030  OBJ        1.000000000000e+04
    X0000031  C0000031  -1.000000000000e+00
    X0000031  C0000094  -1.000000000000e+00
    X0000031  C0000099   1.000000000000e+00
    X0000031  OBJ        1.000000000000e+04
    X0000032  C0000032  -1.000000000000e+00
    X0000032  C0000107  -1.000000000000e+00
    X0000032  C0000108   1.000000000000e+00
    X0000032  OBJ        1.000000000000e+04
    X0000033  C0000033  -1.000000000000e+00
    X0000033  C0000081  -1.000000000000e+00
    X0000033  C0000093   1.000000000000e+00
    X0000033  OBJ        1.000000000000e+04
    X0000034  C0000034  -1.000000000000e+00
    X0000034  C0000106  -1.000000000000e+00
    X0000034  C0000107   1.000000000000e+00
    X0000034  OBJ        1.000000000000e+04
    X0000035  C0000035  -1.000000000000e+00
    X0000035  C0000088  -1.000000000000e+00
    X0000035  C0000089   1.000000000000e+00
    X0000035  OBJ        1.000000000000e+04
    X0000036  C0000036  -1.000000000000e+00
    X0000036  C0000083  -1.000000000000e+00
    X0000036  C0000095   1.000000000000e+00
    X0000036  OBJ        1.000000000000e+04
    X0000037  C0000037  -1.000000000000e+00
    X0000037  C0000118  -1.000000000000e+00
    X0000037  C0000120   1.000000000000e+00
    X0000037  OBJ        1.000000000000e+04
    X0000038  C0000038  -1.000000000000e+00
    X0000038  C0000090  -1.000000000000e+00
    X0000038  C0000091   1.000000000000e+00
    X0000038  OBJ        1.000000000000e+04
    X0000039  C0000039  -1.000000000000e+00
    X0000039  C0000100  -1.000000000000e+00
    X0000039  C0000111   1.000000000000e+00
    X0000039  OBJ        1.000000000000e+04
    X0000040  C0000040  -1.000000000000e+00
    X0000040  C0000084   1.000000000000e+00
    X0000040  C0000111  -1.000000000000e+00
    X0000040  OBJ        1.000000000000e+00
    X0000041  C0000041  -1.000000000000e+00
    X0000041  C0000096  -1.000000000000e+00
    X0000041  C0000115   1.000000000000e+00
    X0000041  OBJ        1.000000000000e+00
    X0000042  C0000042  -1.000000000000e+00
    X0000042  C0000090   1.000000000000e+00
    X0000042  C0000097  -1.000000000000e+00
    X0000042  OBJ        1.000000000000e+00
    X0000043  C0000043  -1.000000000000e+00
    X0000043  C0000091  -1.000000000000e+00
    X0000043  C0000098   1.000000000000e+00
    X0000043  OBJ        1.000000000000e+00
    X0000044  C0000044  -1.000000000000e+00
    X0000044  C0000081   1.000000000000e+00
    X0000044  C0000092  -1.000000000000e+00
    X0000044  OBJ        1.000000000000e+00
    X0000045  C0000045  -1.000000000000e+00
    X0000045  C0000093  -1.000000000000e+00
    X0000045  C0000097   1.000000000000e+00
    X0000045  OBJ        1.000000000000e+00
    X0000046  C0000046  -1.000000000000e+00
    X0000046  C0000102  -1.000000000000e+00
    X0000046  C0000119   1.000000000000e+00
    X0000046  OBJ        1.000000000000e+00
    X0000047  C0000047  -1.000000000000e+00
    X0000047  C0000103   1.000000000000e+00
    X0000047  C0000121  -1.000000000000e+00
    X0000047  OBJ        1.000000000000e+00
    X0000048  C0000048  -1.000000000000e+00
    X0000048  C0000135  -1.000000000000e+00
    X0000048  C0000136   1.000000000000e+00
    X0000048  OBJ        1.000000000000e+04
    X0000049  C0000049  -1.000000000000e+00
    X0000049  C0000082  -1.000000000000e+00
    X0000049  C0000094   1.000000000000e+00
    X0000049  C0000135  -1.000000000000e+00
    X0000049  C0000136   1.000000000000e+00
    X0000050  C0000050  -1.000000000000e+00
    X0000050  C0000140  -1.000000000000e+00
    X0000050  C0000141   1.000000000000e+00
    X0000050  OBJ        1.000000000000e+04
    X0000051  C0000051  -1.000000000000e+00
    X0000051  C0000082  -1.000000000000e+00
    X0000051  C0000094   1.000000000000e+00
    X0000051  C0000140  -1.000000000000e+00
    X0000051  C0000141   1.000000000000e+00
    X0000052  C0000052  -1.000000000000e+00
    X0000052  C0000131  -1.000000000000e+00
    X0000052  C0000132   1.000000000000e+00
    X0000052  OBJ        1.000000000000e+04
    X0000053  C0000053  -1.000000000000e+00
    X0000053  C0000084  -1.000000000000e+00
    X0000053  C0000096   1.000000000000e+00
    X0000053  C0000131  -1.000000000000e+00
    X0000053  C0000132   1.000000000000e+00
    X0000054  C0000054  -1.000000000000e+00
    X0000054  C0000137  -1.000000000000e+00
    X0000054  C0000138   1.000000000000e+00
    X0000054  OBJ        1.000000000000e+04
    X0000055  C0000055  -1.000000000000e+00
    X0000055  C0000094  -1.000000000000e+00
    X0000055  C0000099   1.000000000000e+00
    X0000055  C0000137  -1.000000000000e+00
    X0000055  C0000138   1.000000000000e+00
    X0000056  C0000056  -1.000000000000e+00
    X0000056  C0000125   1.000000000000e+00
    X0000056  C0000141  -1.000000000000e+00
    X0000056  OBJ        1.000000000000e+04
    X0000057  C0000057  -1.000000000000e+00
    X0000057  C0000094  -1.000000000000e+00
    X0000057  C0000099   1.000000000000e+00
    X0000057  C0000125   1.000000000000e+00
    X0000057  C0000141  -1.000000000000e+00
    X0000058  C0000058  -1.000000000000e+00
    X0000058  C0000124  -1.000000000000e+00
    X0000058  C0000134   1.000000000000e+00
    X0000058  OBJ        1.000000000000e+04
    X0000059  C0000059  -1.000000000000e+00
    X0000059  C0000107  -1.000000000000e+00
    X0000059  C0000108   1.000000000000e+00
    X0000059  C0000124  -1.000000000000e+00
    X0000059  C0000134   1.000000000000e+00
    X0000060  C0000060  -1.000000000000e+00
    X0000060  C0000134  -1.000000000000e+00
    X0000060  C0000135   1.000000000000e+00
    X0000060  OBJ        1.000000000000e+04
    X0000061  C0000061  -1.000000000000e+00
    X0000061  C0000081  -1.000000000000e+00
    X0000061  C0000093   1.000000000000e+00
    X0000061  C0000134  -1.000000000000e+00
    X0000061  C0000135   1.000000000000e+00
    X0000062  C0000062  -1.000000000000e+00
    X0000062  C0000123  -1.000000000000e+00
    X0000062  C0000124   1.000000000000e+00
    X0000062  OBJ        1.000000000000e+04
    X0000063  C0000063  -1.000000000000e+00
    X0000063  C0000106  -1.000000000000e+00
    X0000063  C0000107   1.000000000000e+00
    X0000063  C0000123  -1.000000000000e+00
    X0000063  C0000124   1.000000000000e+00
    X0000064  C0000064  -1.000000000000e+00
    X0000064  C0000130  -1.000000000000e+00
    X0000064  C0000131   1.000000000000e+00
    X0000064  OBJ        1.000000000000e+04
    X0000065  C0000065  -1.000000000000e+00
    X0000065  C0000127  -1.000000000000e+00
    X0000065  C0000128   1.000000000000e+00
    X0000065  OBJ        1.000000000000e+04
    X0000066  C0000066  -1.000000000000e+00
    X0000066  C0000088  -1.000000000000e+00
    X0000066  C0000089   1.000000000000e+00
    X0000066  C0000127  -1.000000000000e+00
    X0000066  C0000128   1.000000000000e+00
    X0000067  C0000067  -1.000000000000e+00
    X0000067  C0000138  -1.000000000000e+00
    X0000067  C0000139   1.000000000000e+00
    X0000067  OBJ        1.000000000000e+04
    X0000068  C0000068  -1.000000000000e+00
    X0000068  C0000088  -1.000000000000e+00
    X0000068  C0000089   1.000000000000e+00
    X0000068  C0000138  -1.000000000000e+00
    X0000068  C0000139   1.000000000000e+00
    X0000069  C0000069  -1.000000000000e+00
    X0000069  C0000125  -1.000000000000e+00
    X0000069  C0000126   1.000000000000e+00
    X0000069  OBJ        1.000000000000e+04
    X0000070  C0000070  -1.000000000000e+00
    X0000070  C0000083  -1.000000000000e+00
    X0000070  C0000095   1.000000000000e+00
    X0000070  C0000125  -1.000000000000e+00
    X0000070  C0000126   1.000000000000e+00
    X0000071  C0000071  -1.000000000000e+00
    X0000071  C0000136  -1.000000000000e+00
    X0000071  C0000137   1.000000000000e+00
    X0000071  OBJ        1.000000000000e+04
    X0000072  C0000072  -1.000000000000e+00
    X0000072  C0000083  -1.000000000000e+00
    X0000072  C0000095   1.000000000000e+00
    X0000072  C0000136  -1.000000000000e+00
    X0000072  C0000137   1.000000000000e+00
    X0000073  C0000073  -1.000000000000e+00
    X0000073  C0000128  -1.000000000000e+00
    X0000073  C0000129   1.000000000000e+00
    X0000073  OBJ        1.000000000000e+04
    X0000074  C0000074  -1.000000000000e+00
    X0000074  C0000118  -1.000000000000e+00
    X0000074  C0000120   1.000000000000e+00
    X0000074  C0000128  -1.000000000000e+00
    X0000074  C0000129   1.000000000000e+00
    X0000075  C0000075  -1.000000000000e+00
    X0000075  C0000139  -1.000000000000e+00
    X0000075  C0000140   1.000000000000e+00
    X0000075  OBJ        1.000000000000e+04
    X0000076  C0000076  -1.000000000000e+00
    X0000076  C0000118  -1.000000000000e+00
    X0000076  C0000120   1.000000000000e+00
    X0000076  C0000139  -1.000000000000e+00
    X0000076  C0000140   1.000000000000e+00
    X0000077  C0000077  -1.000000000000e+00
    X0000077  C0000126  -1.000000000000e+00
    X0000077  C0000127   1.000000000000e+00
    X0000077  OBJ        1.000000000000e+04
    X0000078  C0000078  -1.000000000000e+00
    X0000078  C0000100  -1.000000000000e+00
    X0000078  C0000111   1.000000000000e+00
    X0000078  C0000126  -1.000000000000e+00
    X0000078  C0000127   1.000000000000e+00
    X0000079  C0000079  -1.000000000000e+00
    X0000079  C0000129  -1.000000000000e+00
    X0000079  C0000130   1.000000000000e+00
    X0000079  OBJ        1.000000000000e+04
    X0000080  C0000080  -1.000000000000e+00
    X0000080  C0000132  -1.000000000000e+00
    X0000080  C0000133   1.000000000000e+00
    X0000080  OBJ        1.000000000000e+04
RHS
    RHS       C0000000   0.000000000000e+00
    RHS       C0000001   0.000000000000e+00
    RHS       C0000002   0.000000000000e+00
    RHS       C0000003   0.000000000000e+00
    RHS       C0000004   0.000000000000e+00
    RHS       C0000005   0.000000000000e+00
    RHS       C0000006   0.000000000000e+00
    RHS       C0000007   0.000000000000e+00
    RHS       C0000008   0.000000000000e+00
    RHS       C0000009   0.000000000000e+00
    RHS       C0000010   0.000000000000e+00
    RHS       C0000011   0.000000000000e+00
    RHS       C0000012   0.000000000000e+00
    RHS       C0000013   0.000000000000e+00
    RHS       C0000014   0.000000000000e+00
    RHS       C0000015   0.000000000000e+00
    RHS       C0000016   0.000000000000e+00
    RHS       C0000017   0.000000000000e+00
    RHS       C0000018   0.000000000000e+00
    RHS       C0000019   0.000000000000e+00
    RHS       C0000020   0.000000000000e+00
    RHS       C0000021   0.000000000000e+00
    RHS       C0000022   0.000000000000e+00
    RHS       C0000023   0.000000000000e+00
    RHS       C0000024   0.000000000000e+00
    RHS       C0000025   0.000000000000e+00
    RHS       C0000026   0.000000000000e+00
    RHS       C0000027   0.000000000000e+00
    RHS       C0000028   0.000000000000e+00
    RHS       C0000029   0.000000000000e+00
    RHS       C0000030   0.000000000000e+00
    RHS       C0000031   0.000000000000e+00
    RHS       C0000032   0.000000000000e+00
    RHS       C0000033   0.000000000000e+00
    RHS       C0000034   0.000000000000e+00
    RHS       C0000035   0.000000000000e+00
    RHS       C0000036   0.000000000000e+00
    RHS       C0000037   0.000000000000e+00
    RHS       C0000038   0.000000000000e+00
    RHS       C0000039   0.000000000000e+00
    RHS       C0000040   0.000000000000e+00
    RHS       C0000041   0.000000000000e+00
    RHS       C0000042   0.000000000000e+00
    RHS       C0000043   0.000000000000e+00
    RHS       C0000044   0.000000000000e+00
    RHS       C0000045   0.000000000000e+00
    RHS       C0000046   0.000000000000e+00
    RHS       C0000047   0.000000000000e+00
    RHS       C0000048   0.000000000000e+00
    RHS       C0000049   0.000000000000e+00
    RHS       C0000050   0.000000000000e+00
    RHS       C0000051   0.000000000000e+00
    RHS       C0000052   0.000000000000e+00
    RHS       C0000053   0.000000000000e+00
    RHS       C0000054   0.000000000000e+00
    RHS       C0000055   0.000000000000e+00
    RHS       C0000056   0.000000000000e+00
    RHS       C0000057   0.000000000000e+00
    RHS       C0000058   0.000000000000e+00
    RHS       C0000059   0.000000000000e+00
    RHS       C0000060   0.000000000000e+00
    RHS       C0000061   0.000000000000e+00
    RHS       C0000062   0.000000000000e+00
    RHS       C0000063   0.000000000000e+00
    RHS       C0000064   0.000000000000e+00
    RHS       C0000065   0.000000000000e+00
    RHS       C0000066   0.000000000000e+00
    RHS       C0000067   0.000000000000e+00
    RHS       C0000068   0.000000000000e+00
    RHS       C0000069   0.000000000000e+00
    RHS       C0000070   0.000000000000e+00
    RHS       C0000071   0.000000000000e+00
    RHS       C0000072   0.000000000000e+00
    RHS       C0000073   0.000000000000e+00
    RHS       C0000074   0.000000000000e+00
    RHS       C0000075   0.000000000000e+00
    RHS       C0000076   0.000000000000e+00
    RHS       C0000077   0.000000000000e+00
    RHS       C0000078   0.000000000000e+00
    RHS       C0000079   0.000000000000e+00
    RHS       C0000080   0.000000000000e+00
    RHS       C0000081   0.000000000000e+00
    RHS       C0000082   0.000000000000e+00
    RHS       C0000083   0.000000000000e+00
    RHS       C0000084   0.000000000000e+00
    RHS       C0000085  -1.000000000000e+00
    RHS       C0000086   0.000000000000e+00
    RHS       C0000087  -1.000000000000e+00
    RHS       C0000088   0.000000000000e+00
    RHS       C0000089  -1.000000000000e+00
    RHS       C0000090   0.000000000000e+00
    RHS       C0000091   0.000000000000e+00
    RHS       C0000092   0.000000000000e+00
    RHS       C0000093   0.000000000000e+00
    RHS       C0000094   0.000000000000e+00
    RHS       C0000095   0.000000000000e+00
    RHS       C0000096   0.000000000000e+00
    RHS       C0000097   0.000000000000e+00
    RHS       C0000098   0.000000000000e+00
    RHS       C0000099   0.000000000000e+00
    RHS       C0000100   0.000000000000e+00
    RHS       C0000101   0.000000000000e+00
    RHS       C0000102   0.000000000000e+00
    RHS       C0000103   0.000000000000e+00
    RHS       C0000104   0.000000000000e+00
    RHS       C0000105   0.000000000000e+00
    RHS       C0000106   0.000000000000e+00
    RHS       C0000107   0.000000000000e+00
    RHS       C0000108   0.000000000000e+00
    RHS       C0000109   0.000000000000e+00
    RHS       C0000110   0.000000000000e+00
    RHS       C0000111   0.000000000000e+00
    RHS       C0000112   0.000000000000e+00
    RHS       C0000113   1.000000000000e+00
    RHS       C0000114   0.000000000000e+00
    RHS       C0000115   0.000000000000e+00
    RHS       C0000116   0.000000000000e+00
    RHS       C0000117   0.000000000000e+00
    RHS       C0000118   0.000000000000e+00
    RHS       C0000119   0.000000000000e+00
    RHS       C0000120  -1.000000000000e+00
    RHS       C0000121   0.000000000000e+00
    RHS       C0000122   0.000000000000e+00
    RHS       C0000123   0.000000000000e+00
    RHS       C0000124   0.000000000000e+00
    RHS       C0000125   0.000000000000e+00
    RHS       C0000126   0.000000000000e+00
    RHS       C0000127   0.000000000000e+00
    RHS       C0000128   0.000000000000e+00
    RHS       C0000129   0.000000000000e+00
    RHS       C0000130   0.000000000000e+00
    RHS       C0000131   0.000000000000e+00
    RHS       C0000132   0.000000000000e+00
    RHS       C0000133   1.000000000000e+00
    RHS       C0000134   0.000000000000e+00
    RHS       C0000135   0.000000000000e+00
    RHS       C0000136   0.000000000000e+00
    RHS       C0000137   0.000000000000e+00
    RHS       C0000138   0.000000000000e+00
    RHS       C0000139   0.000000000000e+00
    RHS       C0000140   0.000000000000e+00
    RHS       C0000141  -1.000000000000e+00
BOUNDS
 FR BND       X0000000
 FR BND       X0000001
 FR BND       X0000002
 FR BND       X0000003
 FR BND       X0000004
 FR BND       X0000005
 FR BND       X0000006
 FR BND       X0000007
 FR BND       X0000008
 FR BND       X0000009
 FR BND       X0000010
 FR BND       X0000011
 FR BND       X0000012
 FR BND       X0000013
 FR BND       X0000014
 FR BND       X0000015
 FR BND       X0000016
 FR BND       X0000017
 FR BND       X0000018
 FR BND       X0000019
 FR BND       X0000020
 FR BND       X0000021
 FR BND       X0000022
 FR BND       X0000023
 FR BND       X0000024
 FR BND       X0000025
 FR BND       X0000026
 FR BND       X0000027
 FR BND       X0000028
 FR BND       X0000029
 FR BND       X0000030
 FR BND       X0000031
 FR BND       X0000032
 FR BND       X0000033
 FR BND       X0000034
 FR BND       X0000035
 FR BND       X0000036
 FR BND       X0000037
 FR BND       X0000038
 FR BND       X0000039
 FR BND       X0000040
 FR BND       X0000041
 FR BND       X0000042
 FR BND       X0000043
 FR BND       X0000044
 FR BND       X0000045
 FR BND       X0000046
 FR BND       X0000047
 FR BND       X0000048
 FR BND       X0000049
 FR BND       X0000050
 FR BND       X0000051
 FR BND       X0000052
 FR BND       X0000053
 FR BND       X0000054
 FR BND       X0000055
 FR BND       X0000056
 FR BND       X0000057
 FR BND       X0000058
 FR BND       X0000059
 FR BND       X0000060
 FR BND       X0000061
 FR BND       X0000062
 FR BND       X0000063
 FR BND       X0000064
 FR BND       X0000065
 FR BND       X0000066
 FR BND       X0000067
 FR BND       X0000068
 FR BND       X0000069
 FR BND       X0000070
 FR BND       X0000071
 FR BND       X0000072
 FR BND       X0000073
 FR BND       X0000074
 FR BND       X0000075
 FR BND       X0000076
 FR BND       X0000077
 FR BND       X0000078
 FR BND       X0000079
 FR BND       X0000080
ENDATA
